Route #1: 2 5 23 29 45 31 13 8 48 10 18 42 26
Route #2: 34 4 6 35 22 40
Route #3: 32 21 7 19 39 36 52
Route #4: 28 9 41 27 11 50 30
Route #5: 47 3 38 37 51 44 24 20 16 33
Route #6: 12 25 53 14 15
Route #7: 17 49 43 46
cost 1179
